Version identifier: 22.1.1.0 | 2022-11-28 | 9160aff4d
CPXPARAM_ClockType                               1
CPXPARAM_Read_DataCheck                          1
CPXPARAM_Threads                                 1
CPXPARAM_TimeLimit                               7200
CPXPARAM_MIP_Tolerances_AbsMIPGap                0
CPXPARAM_MIP_Tolerances_MIPGap                   0
CPXPARAM_MIP_Tolerances_Integrality              0
Tried aggregator 2 times.
MIP Presolve eliminated 3480 rows and 0 columns.
MIP Presolve modified 3120 coefficients.
Aggregator did 1000 substitutions.
Reduced MIP has 4220 rows, 2500 columns, and 12100 nonzeros.
Reduced MIP has 2500 binaries, 0 generals, 0 SOSs, and 0 indicators.
Presolve time = 0.03 sec. (20.85 ticks)
Found incumbent of value 166.000000 after 0.06 sec. (39.26 ticks)
Probing time = 0.01 sec. (2.46 ticks)
Tried aggregator 1 time.
Detecting symmetries...
MIP Presolve eliminated 200 rows and 0 columns.
Reduced MIP has 4020 rows, 2500 columns, and 11100 nonzeros.
Reduced MIP has 2500 binaries, 0 generals, 0 SOSs, and 0 indicators.
Presolve time = 0.02 sec. (13.82 ticks)
Probing time = 0.01 sec. (2.36 ticks)
Clique table members: 7320.
MIP emphasis: balance optimality and feasibility.
MIP search method: dynamic search.
Parallel mode: none, using 1 thread.
Root relaxation solution time = 0.30 sec. (223.07 ticks)

        Nodes                                         Cuts/
   Node  Left     Objective  IInf  Best Integer    Best Bound    ItCnt     Gap

*     0+    0                          166.0000      500.0000           201.20%
      0     0      200.0000   848      166.0000      200.0000     2258   20.48%
*     0+    0                          190.0000      200.0000             5.26%
*     0+    0                          200.0000      200.0000             0.00%
      0     0        cutoff            200.0000      200.0000     2258    0.00%
Elapsed time = 1.30 sec. (940.34 ticks, tree = 0.01 MB, solutions = 3)

Root node processing (before b&c):
  Real time             =    1.31 sec. (940.52 ticks)
Sequential b&c:
  Real time             =    0.00 sec. (0.00 ticks)
                          ------------
Total (root+branch&cut) =    1.31 sec. (940.52 ticks)
Solution is feasible.

---------------------
@@@ MIP_optimal
>>> Benchmark sw100-15.cnf k 2 OPT 200 TimeCost 2.05507230758667 TimeSolve 1.3340861797332764 TimeRead 0.007562875747680664 TimeTrans 0.7134232521057129
